# Intialization
units           real
dimension       3
boundary        p p p
atom_style      full

# Atom Definition
read_data       water518ions_bonded_naf.lmpdat
replicate       1 1 1


pair_style      lj/cut/coul/long 12.0 12.0
kspace_style    pppm 1.0e-6
pair_coeff      2 2 0.6502 3.166
pair_coeff      * 1 0.00000 1.000
pair_coeff		3 3 1.6629  0.1890
pair_coeff		4 4 1.6629  0.3660
pair_modify		mix arithmetic compute yes
bond_style      harmonic
angle_style     harmonic
dihedral_style  none
improper_style  none
bond_coeff      1 10000.00   1.000
bond_coeff		2 10000.00   10.0
angle_coeff     1 10000.00   109.47
special_bonds   lj/coul 0.0 0.0 1.0
set				type 2 charge -0.8476
set				type 1 charge 0.4238
set				type 3 charge 1.0000
set				type 4 charge -1.0000



# Settings
group			ions type 3 4
bond_coeff      1 1000.00	1.000
bond_coeff		2 1000.00	10.0
angle_coeff     1 100.00	109.47
neighbor        2.0 bin

neigh_modify    every 1 delay 0 check yes
displace_atoms  ions move 0 0.5 0
fix             ensemble all nvt temp 298.15 298.15 100 tchain 1
fix             RigidOHBonds all shake 0.0001 20 0 b 1 a 1

compute			keAtom all ke/atom
timestep        0.200


thermo			100

reset_timestep  0
run             5000

unfix 			ensemble
fix				NPT all npt temp 298.15 298.15 100 tchain 1 iso 1.0 1.0 1000.0
run 			55000

group			water type 1 2
dump			dumpForce ions custom 10 force_ions_0_05_0.xyz id type x y z fx fy fz
run				10000
