# Intialization
units          real
dimension      3
boundary       p p p
atom_style     full

# Atom Definition
read_data      water520.lmpdat
replicate      2 2 2

#The SPC/E water potential
kspace_style    pppm 1.0e-4
pair_style      lj/cut/coul/long 12.0 12.0
pair_coeff      2 2 0.15535 3.166
pair_coeff      * 1 0.0     1.0

bond_style      harmonic
angle_style     harmonic
dihedral_style  none
improper_style  none
bond_coeff      1 10000.00   1.000
angle_coeff     1 10000.00   109.47
special_bonds   lj/coul 0.0 0.0 0.5

minimize        1.0e-6 1.0e-4 1000 10000

# Settings
bond_coeff      1 100.00	1.000
angle_coeff     1 100.00	109.47
neigh_modify   delay 0 every 1 check yes
fix            ensemble all nvt temp 298.15 298.15 100 tchain 1
fix            RigidOHBonds all shake 0.0001 20 0 b 1 a 1

compute			keAtom all ke/atom
timestep       2.00

# Output
#dump           dumpXYZ all custom 100 water520_typeswap_traj.xyz id type x y z vx vy vz c_keAtom
thermo			100
thermo_style    custom  step step temp ke pe lx ly lz press
#thermo_style    custom  step step temp ke pe vol press
thermo_modify   format  line "#rrr %d %g %g %g %g %g %g %g" 
#thermo_modify   format  line "#rrr %d %g %g %g %g %g " 
log 			log_thermo520_typeswap.txt

# Run the simulation
reset_timestep 0
run            10000

write_restart  restart_520nvt10k_typeswap.dat

unfix 			ensemble
fix				NPT all npt temp 298.15 298.15 100 tchain 1 iso 1.0 1.0 1000.0
run 20000

write_restart  restart_520npt20k_typeswap.dat

log				log.lammps append

write_restart  restart_520nvt10k_typeswap-2.dat
#compute gofr all rdf 100  1 1  2 2  1 2  # H-H, O-O, H-O
compute gofr all rdf 100  2 2 
fix rdf all ave/time 100 10 1000 c_gofr[*] file water520_typeswap_rdf-3.dat mode vector

run 10000
